(set-logic ALL)
(declare-fun seed0_T_1 () Bool)
(declare-fun seed0_T_2 () Bool)
(declare-fun seed0_T_3 () Bool)
(declare-fun seed0_T_4 () Bool)
(declare-fun seed0_T_5 () Bool)
(declare-fun seed0_T_6 () Bool)
(declare-fun seed0_T_7 () Bool)
(declare-fun seed0_T_8 () Bool)
(declare-fun seed0_T_9 () Bool)
(declare-fun seed0_T_a () Bool)
(declare-fun seed0_var_0xINPUT_59698 () String)
(assert (and (or (= seed0_T_1 (not (= "CQALcCP5TB" seed0_var_0xINPUT_59698))) (=> (str.<= (str.++ seed0_var_0xINPUT_59698 "GAh7qeOU3") (str.++ seed0_var_0xINPUT_59698 "nrej")) (str.contains (str.++ seed0_var_0xINPUT_59698 "NwPXDqan9HbWjFp5s4ZV") (str.++ seed0_var_0xINPUT_59698 "fwkENnJU6T9YiLIDaC")))) (or seed0_T_1 (xor (str.suffixof (str.++ seed0_var_0xINPUT_59698 "phNC2vHDIkM5Rg3") (str.++ seed0_var_0xINPUT_59698 "")) (str.< (str.++ seed0_var_0xINPUT_59698 "c9O1k") (str.++ seed0_var_0xINPUT_59698 "20PwYW9ZJjpngGe3")))) (or (= seed0_T_2 (not (= "" seed0_var_0xINPUT_59698))) (not (str.suffixof (str.++ seed0_var_0xINPUT_59698 "3Thjnd79N") (str.++ seed0_var_0xINPUT_59698 "7e1F2EiYHKdXVcACvbfR")))) (or seed0_T_2 (and (str.<= (str.++ seed0_var_0xINPUT_59698 "3LKGh8nHjuIc") (str.++ seed0_var_0xINPUT_59698 "3mMjg5GPxuzBltAQa4")) (str.< (str.++ seed0_var_0xINPUT_59698 "shU9aiTXtbVQYKr") (str.++ seed0_var_0xINPUT_59698 "8c1oXgqj5rfJzbP")))) (or (= seed0_T_3 (not (= "" seed0_var_0xINPUT_59698))) (not (str.prefixof (str.++ seed0_var_0xINPUT_59698 "iEjcFTZVhOJx7ywo18mn") (str.++ seed0_var_0xINPUT_59698 "lPNSi")))) (or seed0_T_3 (not (str.prefixof (str.++ seed0_var_0xINPUT_59698 "auvkiPtqZUM") (str.++ seed0_var_0xINPUT_59698 "VfDaN1Ec3T0")))) (or (= seed0_T_4 (not (= seed0_var_0xINPUT_59698 ""))) (str.<= (str.++ seed0_var_0xINPUT_59698 "EvgzP81bpJYKRso") (str.++ seed0_var_0xINPUT_59698 "016JifbRlaZDN7YsIUg"))) (or seed0_T_4 (not (str.< (str.++ seed0_var_0xINPUT_59698 "9KOQWpxz263") (str.++ seed0_var_0xINPUT_59698 "vH51zblO")))) (or (= seed0_T_5 (= seed0_var_0xINPUT_59698 "")) (or (str.<= (str.++ seed0_var_0xINPUT_59698 "TOdDqZJ7lXVRU2iBLWSa") (str.++ seed0_var_0xINPUT_59698 "")) (str.<= (str.++ seed0_var_0xINPUT_59698 "XHVfqaim") (str.++ seed0_var_0xINPUT_59698 "uX")))) (or (= seed0_T_6 (not seed0_T_5)) (or (str.<= (str.++ seed0_var_0xINPUT_59698 "hfwBCLIxEVXUWeDrKbF") (str.++ seed0_var_0xINPUT_59698 "mbfUSB9Yspu6H")) (str.suffixof (str.++ seed0_var_0xINPUT_59698 "qD5vU3k") (str.++ seed0_var_0xINPUT_59698 "iz1P9hE")))) (or seed0_T_6 (str.< (str.++ seed0_var_0xINPUT_59698 "2IW8uqm") (str.++ seed0_var_0xINPUT_59698 "y5"))) (or (= seed0_T_7 (not (= "" seed0_var_0xINPUT_59698))) (not (str.<= (str.++ seed0_var_0xINPUT_59698 "08nWiIFO9gP") (str.++ seed0_var_0xINPUT_59698 "")))) (or seed0_T_7 (not (str.suffixof (str.++ seed0_var_0xINPUT_59698 "ys45k2") (str.++ seed0_var_0xINPUT_59698 "E5g")))) (or (= seed0_T_8 (= seed0_var_0xINPUT_59698 "Example:")) (xor (str.prefixof (str.++ seed0_var_0xINPUT_59698 "w9j") (str.++ seed0_var_0xINPUT_59698 "V4gQi")) (str.< (str.++ seed0_var_0xINPUT_59698 "oisl13IwcmZT") (str.++ seed0_var_0xINPUT_59698 "V24UDKp7jN8S")))) (or (= seed0_T_9 (not seed0_T_8)) (or (str.< (str.++ seed0_var_0xINPUT_59698 "7YdRrPavpQxHATeosk") (str.++ seed0_var_0xINPUT_59698 "ko4l62mMyT3H9")) (str.suffixof (str.++ seed0_var_0xINPUT_59698 "yu") (str.++ seed0_var_0xINPUT_59698 "XVK9yFQ")))) (or seed0_T_9 (xor (str.<= (str.++ seed0_var_0xINPUT_59698 "Y6WJQljoZCLRp") (str.++ seed0_var_0xINPUT_59698 "iJgTRvPosn9YuHeWMVU")) (str.< (str.++ seed0_var_0xINPUT_59698 "ixLV") (str.++ seed0_var_0xINPUT_59698 "5GICADLYepbQWSgHU")))) (or (= seed0_T_a (not (= seed0_var_0xINPUT_59698 "ywUN4ZIDAC"))) (or (str.contains (str.++ seed0_var_0xINPUT_59698 "HIdKEamw") (str.++ seed0_var_0xINPUT_59698 "eHfRw57GImKqP2UMYaC")) (str.prefixof (str.++ seed0_var_0xINPUT_59698 "H3Fm9ap5yvdjVSole6uN") (str.++ seed0_var_0xINPUT_59698 "SNWEBpMRk")))) (or seed0_T_a (=> (str.suffixof (str.++ seed0_var_0xINPUT_59698 "PrEuOQ7m85vlxWhSC") (str.++ seed0_var_0xINPUT_59698 "Nm9h")) (str.suffixof (str.++ seed0_var_0xINPUT_59698 "F27PuhndU") (str.++ seed0_var_0xINPUT_59698 "K35HmUChbkrjcXlETaG"))))))
(check-sat)
(exit)